\ Model Staff Scheduling Problem
\ LP format - for model browsing. Use MPS format to capture full model detail.
Minimize
  x[0,0] + x[0,1] + x[0,2] + x[0,3] + x[0,4] + x[0,5] + x[0,6] + x[1,0]
   + x[1,1] + x[1,2] + x[1,3] + x[1,4] + x[1,5] + x[1,6] + x[2,0] + x[2,1]
   + x[2,2] + x[2,3] + x[2,4] + x[2,5] + x[2,6] + x[3,0] + x[3,1] + x[3,2]
   + x[3,3] + x[3,4] + x[3,5] + x[3,6] + x[4,0] + x[4,1] + x[4,2] + x[4,3]
   + x[4,4] + x[4,5] + x[4,6]
Subject To
 R0: x[0,0] + x[1,0] + x[2,0] + x[3,0] + x[4,0] >= 1
 R1: x[0,1] + x[1,1] + x[2,1] + x[3,1] + x[4,1] >= 1
 R2: x[0,2] + x[1,2] + x[2,2] + x[3,2] + x[4,2] >= 1
 R3: x[0,3] + x[1,3] + x[2,3] + x[3,3] + x[4,3] >= 1
 R4: x[0,4] + x[1,4] + x[2,4] + x[3,4] + x[4,4] >= 1
 R5: x[0,5] + x[1,5] + x[2,5] + x[3,5] + x[4,5] >= 1
 R6: x[0,6] + x[1,6] + x[2,6] + x[3,6] + x[4,6] >= 1
 R7: 7.47 x[0,0] + 4.03 x[0,1] + 4.23 x[0,2] + 6.54 x[0,3] + 6.67 x[0,4]
   + 7.47 x[0,5] + 4.03 x[0,6] <= 1e+06
 R8: 7.47 x[1,0] + 4.03 x[1,1] + 4.23 x[1,2] + 6.54 x[1,3] + 6.67 x[1,4]
   + 7.47 x[1,5] + 4.03 x[1,6] <= 1e+06
 R9: 7.47 x[2,0] + 4.03 x[2,1] + 4.23 x[2,2] + 6.54 x[2,3] + 6.67 x[2,4]
   + 7.47 x[2,5] + 4.03 x[2,6] <= 1e+06
 R10: 7.47 x[3,0] + 4.03 x[3,1] + 4.23 x[3,2] + 6.54 x[3,3] + 6.67 x[3,4]
   + 7.47 x[3,5] + 4.03 x[3,6] <= 1e+06
 R11: 7.47 x[4,0] + 4.03 x[4,1] + 4.23 x[4,2] + 6.54 x[4,3] + 6.67 x[4,4]
   + 7.47 x[4,5] + 4.03 x[4,6] <= 1e+06
Bounds
End
